language Essence 1.3

letting blksize_delta be
        function(1 --> 7, 2 --> 7, 3 --> 7, 4 --> 7, 5 --> 7, 6 --> 7, 7 --> 7, 8 --> 7, 9 --> 7, 10 --> 7, 11 --> 7,
                 12 --> 7, 13 --> 7, 14 --> 7, 15 --> 7, 16 --> 7)
letting maxcars be
        function(1 --> 10, 2 --> 10, 3 --> 10, 4 --> 10, 5 --> 10, 6 --> 10, 7 --> 10, 8 --> 10, 9 --> 10, 10 --> 10,
                 11 --> 10, 12 --> 10, 13 --> 10, 14 --> 10, 15 --> 10, 16 --> 10)
letting n_cars be 240
letting n_classes be 48
letting n_options be 16
letting quantity be
        function(1 --> 5, 2 --> 5, 3 --> 5, 4 --> 5, 5 --> 5, 6 --> 5, 7 --> 5, 8 --> 5, 9 --> 5, 10 --> 5, 11 --> 5,
                 12 --> 5, 13 --> 5, 14 --> 5, 15 --> 5, 16 --> 5, 17 --> 5, 18 --> 5, 19 --> 5, 20 --> 5, 21 --> 5,
                 22 --> 5, 23 --> 5, 24 --> 5, 25 --> 5, 26 --> 5, 27 --> 5, 28 --> 5, 29 --> 5, 30 --> 5, 31 --> 5,
                 32 --> 5, 33 --> 5, 34 --> 5, 35 --> 5, 36 --> 5, 37 --> 5, 38 --> 5, 39 --> 5, 40 --> 5, 41 --> 5,
                 42 --> 5, 43 --> 5, 44 --> 5, 45 --> 5, 46 --> 5, 47 --> 5, 48 --> 5)
letting usage be
        relation((1, 1), (1, 12), (2, 9), (2, 13), (3, 16), (4, 8), (5, 14), (5, 16), (6, 2), (6, 3), (6, 14), (7, 16),
                 (8, 4), (8, 6), (8, 16), (9, 10), (10, 2), (10, 15), (11, 7), (11, 13), (11, 14), (12, 16), (13, 11),
                 (13, 13), (14, 4), (15, 12), (16, 1), (16, 14), (17, 10), (17, 12), (17, 15), (18, 4), (19, 16),
                 (20, 6), (20, 8), (21, 16), (22, 5), (22, 6), (22, 7), (22, 9), (23, 4), (23, 7), (23, 12), (24, 13),
                 (24, 16), (25, 13), (26, 13), (27, 13), (28, 8), (29, 16), (30, 7), (30, 10), (31, 3), (32, 3),
                 (32, 15), (33, 1), (33, 6), (33, 9), (33, 14), (34, 2), (34, 7), (35, 10), (35, 13), (36, 2), (36, 6),
                 (36, 15), (37, 13), (38, 2), (38, 5), (38, 7), (38, 11), (38, 16), (39, 15), (39, 16), (40, 7),
                 (40, 9), (40, 11), (40, 13), (41, 4), (41, 10), (42, 2), (43, 13), (44, 16), (45, 12), (45, 13),
                 (45, 16), (46, 1), (47, 8), (48, 15))
$ Visualisation for usage
$  1  1
$  1 12
$  2  9
$  2 13
$  3 16
$  4  8
$  5 14
$  5 16
$  6  2
$  6  3
$  6 14
$  7 16
$  8  4
$  8  6
$  8 16
$  9 10
$ 10  2
$ 10 15
$ 11  7
$ 11 13
$ 11 14
$ 12 16
$ 13 11
$ 13 13
$ 14  4
$ 15 12
$ 16  1
$ 16 14
$ 17 10
$ 17 12
$ 17 15
$ 18  4
$ 19 16
$ 20  6
$ 20  8
$ 21 16
$ 22  5
$ 22  6
$ 22  7
$ 22  9
$ 23  4
$ 23  7
$ 23 12
$ 24 13
$ 24 16
$ 25 13
$ 26 13
$ 27 13
$ 28  8
$ 29 16
$ 30  7
$ 30 10
$ 31  3
$ 32  3
$ 32 15
$ 33  1
$ 33  6
$ 33  9
$ 33 14
$ 34  2
$ 34  7
$ 35 10
$ 35 13
$ 36  2
$ 36  6
$ 36 15
$ 37 13
$ 38  2
$ 38  5
$ 38  7
$ 38 11
$ 38 16
$ 39 15
$ 39 16
$ 40  7
$ 40  9
$ 40 11
$ 40 13
$ 41  4
$ 41 10
$ 42  2
$ 43 13
$ 44 16
$ 45 12
$ 45 13
$ 45 16
$ 46  1
$ 47  8
$ 48 15

